50
4114

889 492
364 780
220 77
585 857
138 687
37 311
398 826
505 98
185 378
65 80
576 209
570 696
97 54
82 850
86 560
614 6
760 656
487 549
275 959
794 510
775 17
309 498
534 138
740 886
592 622
37 224
7 561
884 733
708 293
672 802
627 63
629 142
262 295
89 328
972 961
446 493
474 459
539 985
564 136
214 322
375 558
415 758
988 943
132 515
226 254
186 631
823 550
283 544
850 960
549 574
